experiments/sat_smt/run/sat-l/results/mary.res
solved=true
solvingTime=472.779693603515625
nActions=41