experiments/sat_smt/run/sat-l/results/mary.out
Timesteps: 1
s UNSATISFIABLE
real 0.05
user 0.00
sys 0.00
Timesteps: 2
s UNSATISFIABLE
real 0.09
user 0.01
sys 0.00
Timesteps: 3
s UNSATISFIABLE
real 0.06
user 0.01
sys 0.00
Timesteps: 4
s UNSATISFIABLE
real 0.07
user 0.02
sys 0.00
Timesteps: 5
s UNSATISFIABLE
real 0.11
user 0.04
sys 0.00
Timesteps: 6
s UNSATISFIABLE
real 0.12
user 0.05
sys 0.00
Timesteps: 7
s UNSATISFIABLE
real 0.11
user 0.07
sys 0.00
Timesteps: 8
s UNSATISFIABLE
real 0.15
user 0.11
sys 0.00
Timesteps: 9
s UNSATISFIABLE
real 0.24
user 0.19
sys 0.00
Timesteps: 10
s UNSATISFIABLE
real 0.43
user 0.38
sys 0.00
Timesteps: 11
s UNSATISFIABLE
real 0.44
user 0.38
sys 0.00
Timesteps: 12
s UNSATISFIABLE
real 0.98
user 0.91
sys 0.01
Timesteps: 13
s UNSATISFIABLE
real 1.10
user 1.00
sys 0.01
Timesteps: 14
s UNSATISFIABLE
real 1.93
user 1.84
sys 0.00
Timesteps: 15
s UNSATISFIABLE
real 1.94
user 1.85
sys 0.00
Timesteps: 16
s UNSATISFIABLE
real 3.93
user 3.81
sys 0.01
Timesteps: 17
s UNSATISFIABLE
real 2.91
user 2.79
sys 0.01
Timesteps: 18
s UNSATISFIABLE
real 4.99
user 4.85
sys 0.02
Timesteps: 19
s UNSATISFIABLE
real 4.76
user 4.63
sys 0.02
Timesteps: 20
s UNSATISFIABLE
real 6.26
user 6.11
sys 0.02
Timesteps: 21
s UNSATISFIABLE
real 6.41
user 6.26
sys 0.02
Timesteps: 22
s UNSATISFIABLE
real 6.64
user 6.42
sys 0.03
Timesteps: 23
s UNSATISFIABLE
real 7.51
user 7.34
sys 0.02
Timesteps: 24
s UNSATISFIABLE
real 7.82
user 7.63
sys 0.03
Timesteps: 25
s UNSATISFIABLE
real 9.74
user 9.38
sys 0.03
Timesteps: 26
s UNSATISFIABLE
real 9.41
user 9.22
sys 0.03
Timesteps: 27
s UNSATISFIABLE
real 10.40
user 10.19
sys 0.03
Timesteps: 28
s UNSATISFIABLE
real 11.62
user 11.41
sys 0.03
Timesteps: 29
s UNSATISFIABLE
real 13.35
user 13.11
sys 0.04
Timesteps: 30
s UNSATISFIABLE
real 13.77
user 13.54
sys 0.03
Timesteps: 31
s UNSATISFIABLE
real 18.16
user 17.89
sys 0.05
Timesteps: 32
s UNSATISFIABLE
real 21.09
user 20.79
sys 0.06
Timesteps: 33
s UNSATISFIABLE
real 20.21
user 19.92
sys 0.04
Timesteps: 34
s UNSATISFIABLE
real 24.09
user 23.77
sys 0.07
Timesteps: 35
s UNSATISFIABLE
real 25.51
user 25.18
sys 0.06
Timesteps: 36
s UNSATISFIABLE
real 29.10
user 28.74
sys 0.07
Timesteps: 37
s UNSATISFIABLE
real 33.66
user 33.27
sys 0.07
Timesteps: 38
s UNSATISFIABLE
real 30.81
user 30.43
sys 0.08
Timesteps: 39
s UNSATISFIABLE
real 58.10
user 57.19
sys 0.13
Timesteps: 40
s UNSATISFIABLE
real 48.79
user 47.96
sys 0.11
Timesteps: 41
s SATISFIABLE
real 38.25
user 37.51
sys 0.09
